# Objective value = 5.2275600000000022e+03
I_0_0 1716
I_0_1 2198
I_0_2 1.8700000000000005e+03
I_0_3 2.2799999999999995e+03
I_1_0 132
I_1_1 66
I_1_2 132
I_1_3 66
I_2_0 134
I_2_1 67
I_2_2 134
I_2_3 6.7000000000000071e+01
I_3_0 10
I_3_1 -3.8857805861880479e-15
I_3_2 1.0000000000000002e+01
I_3_3 -3.8857805861880479e-15
I_4_0 54
I_4_1 2.6999999999999922e+01
I_4_2 5.3999999999999766e+01
I_4_3 2.7000000000000032e+01
I_5_0 62
I_5_1 0
I_5_2 62
I_5_3 3.7170266864450241e-13
I_6_0 11
I_6_1 -3.2973623831367149e-14
I_6_2 1.1000000000000039e+01
I_6_3 -3.4194869158454821e-14
I_7_0 34
I_7_1 1.6999999999999947e+01
I_7_2 3.3999999999999908e+01
I_7_3 1.6999999999999620e+01
I_8_0 24
I_8_1 1.1999999999999996e+01
I_8_2 2.4000000000000004e+01
I_8_3 1.2000000000000004e+01
I_9_0 182
I_9_1 91
I_9_2 1.8199999999999997e+02
I_9_3 9.0999999999999972e+01
I_10_0 51
I_10_1 0
I_10_2 51
I_10_3 0
I_11_0 42
I_11_1 7.9269923958236177e-14
I_11_2 42
I_11_3 0
I_12_0 95
I_12_1 95
I_12_2 2.1094237467877974e-14
I_12_3 9.4999999999999972e+01
I_13_0 26
I_13_1 1.3855583347321954e-13
I_13_2 2.5999999999999872e+01
I_13_3 1.3855583347321954e-13
I_14_0 59
I_14_1 59
I_14_2 3.9301895071730542e-14
I_14_3 5.8999999999999936e+01
I_15_0 82
I_15_1 82
I_15_2 82
I_15_3 0
q_1_0 0
q_1_1 132
q_1_2 0
q_2_0 0
q_2_1 134
q_2_2 6.3948846218409017e-14
q_3_0 -3.8857805861880479e-15
q_3_1 2.0000000000000007e+01
q_3_2 -5.6621374255882984e-15
q_4_0 -7.7937656328685989e-14
q_4_1 5.3999999999999915e+01
q_4_2 2.6290081223123707e-13
q_5_0 0
q_5_1 124
q_5_2 3.7170266864450241e-13
q_6_0 -3.2973623831367149e-14
q_6_1 2.2000000000000071e+01
q_6_2 -7.3274719625260332e-14
q_7_0 -5.2846615972157451e-14
q_7_1 34
q_7_2 -2.9132252166164108e-13
q_8_0 -2.6645352591003757e-15
q_8_1 2.4000000000000004e+01
q_8_2 0
q_9_0 0
q_9_1 182
q_9_2 0
q_10_0 0
q_10_1 102
q_10_2 0
q_11_0 7.9269923958236177e-14
q_11_1 8.3999999999999915e+01
q_11_2 0
q_12_0 95
q_12_1 2.1094237467877974e-14
q_12_2 1.8999999999999994e+02
q_13_0 1.3855583347321954e-13
q_13_1 5.1999999999999730e+01
q_13_2 2.6645352591003757e-13
q_14_0 59
q_14_1 3.9301895071730542e-14
q_14_2 1.1799999999999989e+02
q_15_0 82
q_15_1 82
q_15_2 0
y_0_0 1
y_0_1 1
y_0_2 1
y_1_0 0
y_1_1 1
y_1_2 0
y_2_0 0
y_2_1 1
y_2_2 3.3306690738754696e-16
y_3_0 -3.8857805861880479e-16
y_3_1 1.0000000000000002e+00
y_3_2 -3.8857805861880479e-16
y_4_0 -2.8865798640254070e-15
y_4_1 1
y_4_2 2.55351295663786e-15
y_5_0 0
y_5_1 1
y_5_2 5.9952043329758453e-15
y_6_0 -2.9976021664879227e-15
y_6_1 1.0000000000000036e+00
y_6_2 -3.1086244689504383e-15
y_7_0 -3.1086244689504383e-15
y_7_1 1
y_7_2 -6.1062266354383610e-15
y_8_0 -2.2204460492503131e-16
y_8_1 1
y_8_2 0
y_9_0 0
y_9_1 1
y_9_2 0
y_10_0 0
y_10_1 1
y_10_2 0
y_11_0 1.8873791418627661e-15
y_11_1 1
y_11_2 0
y_12_0 1
y_12_1 2.2204460492503131e-16
y_12_2 9.9999999999999967e-01
y_13_0 5.3290705182007514e-15
y_13_1 9.9999999999999512e-01
y_13_2 5.3290705182007514e-15
y_14_0 1
y_14_1 6.6613381477509392e-16
y_14_2 9.9999999999999889e-01
y_15_0 1
y_15_1 1
y_15_2 0
x_0_1_0 0
x_0_1_1 0
x_0_1_2 0
x_0_2_0 0
x_0_2_1 0
x_0_2_2 0
x_0_3_0 0
x_0_3_1 0
x_0_3_2 0
x_0_4_0 0
x_0_4_1 0
x_0_4_2 0
x_0_5_0 0
x_0_5_1 0
x_0_5_2 0
x_0_6_0 0
x_0_6_1 0
x_0_6_2 0
x_0_7_0 0
x_0_7_1 0
x_0_7_2 0
x_0_8_0 0
x_0_8_1 0
x_0_8_2 0
x_0_9_0 0
x_0_9_1 0
x_0_9_2 0
x_0_10_0 0
x_0_10_1 0
x_0_10_2 0
x_0_11_0 0
x_0_11_1 1.0000000000000124e+00
x_0_11_2 0
x_0_12_0 1
x_0_12_1 0
x_0_12_2 9.9999999999999967e-01
x_0_13_0 0
x_0_13_1 -7.7715611723760958e-15
x_0_13_2 0
x_0_14_0 -7.93809462606987e-15
x_0_14_1 2.6645352591003757e-15
x_0_14_2 9.9999999999999822e-01
x_0_15_0 1.0000000000000080e+00
x_0_15_1 9.9999999999999645e-01
x_0_15_2 1.3322676295501878e-15
x_1_2_0 0
x_1_2_1 1
x_1_2_2 0
x_1_3_0 0
x_1_3_1 0
x_1_3_2 0
x_1_4_0 0
x_1_4_1 0
x_1_4_2 0
x_1_5_0 0
x_1_5_1 3.3306690738754696e-16
x_1_5_2 0
x_1_6_0 0
x_1_6_1 0
x_1_6_2 0
x_1_7_0 0
x_1_7_1 0
x_1_7_2 0
x_1_8_0 0
x_1_8_1 1
x_1_8_2 0
x_1_9_0 0
x_1_9_1 3.8857805861880479e-16
x_1_9_2 0
x_1_10_0 0
x_1_10_1 0
x_1_10_2 0
x_1_11_0 0
x_1_11_1 0
x_1_11_2 0
x_1_12_0 0
x_1_12_1 0
x_1_12_2 0
x_1_13_0 0
x_1_13_1 0
x_1_13_2 0
x_1_14_0 0
x_1_14_1 0
x_1_14_2 0
x_1_15_0 0
x_1_15_1 0
x_1_15_2 0
x_2_3_0 0
x_2_3_1 0
x_2_3_2 0
x_2_4_0 0
x_2_4_1 0
x_2_4_2 0
x_2_5_0 0
x_2_5_1 9.9999999999999922e-01
x_2_5_2 1.5543122344752192e-14
x_2_6_0 0
x_2_6_1 0
x_2_6_2 0
x_2_7_0 0
x_2_7_1 0
x_2_7_2 0
x_2_8_0 0
x_2_8_1 0
x_2_8_2 0
x_2_9_0 0
x_2_9_1 0
x_2_9_2 -1.5543122344752192e-14
x_2_10_0 0
x_2_10_1 0
x_2_10_2 0
x_2_11_0 0
x_2_11_1 0
x_2_11_2 0
x_2_12_0 0
x_2_12_1 0
x_2_12_2 0
x_2_13_0 0
x_2_13_1 0
x_2_13_2 0
x_2_14_0 0
x_2_14_1 0
x_2_14_2 0
x_2_15_0 0
x_2_15_1 0
x_2_15_2 0
x_3_4_0 -3.8857805861880479e-16
x_3_4_1 0.999999999999997
x_3_4_2 -2.7755575615628914e-16
x_3_5_0 0
x_3_5_1 0
x_3_5_2 0
x_3_6_0 0
x_3_6_1 4.2188474935755949e-15
x_3_6_2 0
x_3_7_0 -3.7747582837255322e-15
x_3_7_1 0
x_3_7_2 -3.7747582837255322e-15
x_3_8_0 3.7192471324942744e-15
x_3_8_1 1
x_3_8_2 3.2196467714129540e-15
x_3_9_0 0
x_3_9_1 0
x_3_9_2 0
x_3_10_0 0
x_3_10_1 0
x_3_10_2 0
x_3_11_0 0
x_3_11_1 0
x_3_11_2 0
x_3_12_0 0
x_3_12_1 0
x_3_12_2 0
x_3_13_0 0
x_3_13_1 0
x_3_13_2 0
x_3_14_0 0
x_3_14_1 0
x_3_14_2 0
x_3_15_0 0
x_3_15_1 0
x_3_15_2 0
x_4_5_0 0
x_4_5_1 0
x_4_5_2 0
x_4_6_0 -3.2196467714129540e-15
x_4_6_1 1.0000000000000038e+00
x_4_6_2 -1.5543122344752192e-15
x_4_7_0 0
x_4_7_1 0
x_4_7_2 6.0507154842071031e-15
x_4_8_0 0
x_4_8_1 0
x_4_8_2 0
x_4_9_0 0
x_4_9_1 0
x_4_9_2 0
x_4_10_0 0
x_4_10_1 0
x_4_10_2 0
x_4_11_0 0
x_4_11_1 0
x_4_11_2 0
x_4_12_0 0
x_4_12_1 0
x_4_12_2 0
x_4_13_0 0
x_4_13_1 0
x_4_13_2 0
x_4_14_0 0
x_4_14_1 0
x_4_14_2 0
x_4_15_0 0
x_4_15_1 0
x_4_15_2 0
x_5_6_0 0
x_5_6_1 0
x_5_6_2 0
x_5_7_0 0
x_5_7_1 0
x_5_7_2 0
x_5_8_0 0
x_5_8_1 0
x_5_8_2 0
x_5_9_0 0
x_5_9_1 1
x_5_9_2 0
x_5_10_0 0
x_5_10_1 3.8857805861880479e-16
x_5_10_2 0
x_5_11_0 0
x_5_11_1 0
x_5_11_2 0
x_5_12_0 0
x_5_12_1 0
x_5_12_2 0
x_5_13_0 0
x_5_13_1 0
x_5_13_2 0
x_5_14_0 0
x_5_14_1 0
x_5_14_2 0
x_5_15_0 0
x_5_15_1 0
x_5_15_2 0
x_6_7_0 -2.9976021664879227e-15
x_6_7_1 1
x_6_7_2 -6.1062266354383610e-15
x_6_8_0 0
x_6_8_1 0
x_6_8_2 0
x_6_9_0 0
x_6_9_1 0
x_6_9_2 0
x_6_10_0 0
x_6_10_1 0
x_6_10_2 0
x_6_11_0 0
x_6_11_1 -3.3306690738754696e-16
x_6_11_2 0
x_6_12_0 0
x_6_12_1 0
x_6_12_2 0
x_6_13_0 0
x_6_13_1 0
x_6_13_2 0
x_6_14_0 0
x_6_14_1 0
x_6_14_2 0
x_6_15_0 0
x_6_15_1 0
x_6_15_2 0
x_7_8_0 1.6653345369377348e-16
x_7_8_1 0
x_7_8_2 -2.7755575615628914e-15
x_7_9_0 0
x_7_9_1 0
x_7_9_2 0
x_7_10_0 0
x_7_10_1 0
x_7_10_2 0
x_7_11_0 0
x_7_11_1 1
x_7_11_2 0
x_7_12_0 0
x_7_12_1 0
x_7_12_2 0
x_7_13_0 0
x_7_13_1 0
x_7_13_2 0
x_7_14_0 0
x_7_14_1 0
x_7_14_2 0
x_7_15_0 0
x_7_15_1 0
x_7_15_2 0
x_8_9_0 0
x_8_9_1 0
x_8_9_2 0
x_8_10_0 0
x_8_10_1 0
x_8_10_2 0
x_8_11_0 0
x_8_11_1 0
x_8_11_2 0
x_8_12_0 0
x_8_12_1 0
x_8_12_2 0
x_8_13_0 0
x_8_13_1 0
x_8_13_2 0
x_8_14_0 0
x_8_14_1 0
x_8_14_2 0
x_8_15_0 0
x_8_15_1 0
x_8_15_2 0
x_9_10_0 0
x_9_10_1 1
x_9_10_2 0
x_9_11_0 0
x_9_11_1 0
x_9_11_2 0
x_9_12_0 0
x_9_12_1 0
x_9_12_2 0
x_9_13_0 0
x_9_13_1 0
x_9_13_2 1.5543122344752192e-14
x_9_14_0 0
x_9_14_1 0
x_9_14_2 0
x_9_15_0 0
x_9_15_1 0
x_9_15_2 0
x_10_11_0 0
x_10_11_1 0
x_10_11_2 0
x_10_12_0 0
x_10_12_1 0
x_10_12_2 0
x_10_13_0 0
x_10_13_1 9.9999999999999989e-01
x_10_13_2 5.5511151231257827e-17
x_10_14_0 0
x_10_14_1 0
x_10_14_2 0
x_10_15_0 0
x_10_15_1 0
x_10_15_2 0
x_11_12_0 0
x_11_12_1 0
x_11_12_2 0
x_11_13_0 3.7747582837255322e-15
x_11_13_1 -7.1054273576010019e-15
x_11_13_2 0
x_11_14_0 0
x_11_14_1 0
x_11_14_2 0
x_11_15_0 0
x_11_15_1 0
x_11_15_2 0
x_12_13_0 0
x_12_13_1 0
x_12_13_2 0
x_12_14_0 1
x_12_14_1 4.4408920985006262e-16
x_12_14_2 9.9999999999999989e-01
x_12_15_0 0
x_12_15_1 0
x_12_15_2 0
x_13_14_0 0
x_13_14_1 0
x_13_14_2 0
x_13_15_0 6.2172489379008766e-15
x_13_15_1 1.0000000000000038e+00
x_13_15_2 0
x_14_15_0 1.0000000000000080e+00
x_14_15_1 0
x_14_15_2 0
